Version identifier: 20.1.0.0 | 2020-11-10 | 9bedb6d68
CPXPARAM_Threads                                 1
CPXPARAM_TimeLimit                               7200
CPXPARAM_MIP_Tolerances_MIPGap                   0
Generic callback                                 0x60
1 of 1 MIP starts provided solutions.
MIP start 'm1' defined initial solution with objective 1999.1758.
Tried aggregator 1 time.
Reduced MIP has 500501 rows, 501001 columns, and 1501000 nonzeros.
Reduced MIP has 1000 binaries, 0 generals, 0 SOSs, and 0 indicators.
Presolve time = 0.50 sec. (474.50 ticks)
Probing time = 0.07 sec. (62.57 ticks)
Tried aggregator 1 time.
Reduced MIP has 500501 rows, 501001 columns, and 1501000 nonzeros.
Reduced MIP has 1000 binaries, 0 generals, 0 SOSs, and 0 indicators.
Presolve time = 0.50 sec. (466.39 ticks)
Probing time = 0.07 sec. (62.57 ticks)
MIP emphasis: balance optimality and feasibility.
MIP search method: dynamic search.
Parallel mode: none, using 1 thread.
Root relaxation solution time = 0.17 sec. (192.73 ticks)

        Nodes                                         Cuts/
   Node  Left     Objective  IInf  Best Integer    Best Bound    ItCnt     Gap

*     0+    0                         1999.1758     2716.0000            35.86%
      0     0     2015.8987    21     1999.1758     2716.0000        0   35.86%
      0     2     2015.8987    21     1999.1758     2015.8987        0    0.84%
Elapsed time = 487.89 sec. (434165.24 ticks, tree = 0.01 MB, solutions = 1)
      1     3     2010.9631    22     1999.1758     2015.8967    23019    0.84%
      2     4     2013.6129    33     1999.1758     2013.6126    32713    0.72%
      3     5     2013.5990    33     1999.1758     2013.6124    32905    0.72%
      4     6     2013.5125    12     1999.1758     2013.5990    33696    0.72%
      5     7     2011.5383    19     1999.1758     2013.5990    39821    0.72%
      6     8     2013.4440    12     1999.1758     2013.5990    40449    0.72%
      7     9     2013.4209    12     1999.1758     2013.5990    44200    0.72%
      8    10     2012.0703    18     1999.1758     2013.5990    55276    0.72%
      9    11     2013.3347    14     1999.1758     2013.5990    65295    0.72%
*    10+   10                         2010.1203     2013.5990             0.17%
     10    12     2011.4401    26     2010.1203     2013.5990    72445    0.17%
Elapsed time = 1494.74 sec. (1100145.38 ticks, tree = 1.80 MB, solutions = 2)
     11    13     2013.2504     8     2010.1203     2013.5990    75321    0.17%
     12    14     2013.2146     6     2010.1203     2013.5990    83840    0.17%
     13    15     2013.1923     8     2010.1203     2013.5990    84232    0.17%
     14    16     2013.0091     2     2010.1203     2013.5990    87921    0.17%
     15    17     2012.9612     2     2010.1203     2013.5990    89021    0.17%
     16    18     2012.5893     2     2010.1203     2013.5990    91547    0.17%
     17    19     2012.9526    14     2010.1203     2013.5990    93571    0.17%
     18    20     2012.0357     2     2010.1203     2013.5990    97203    0.17%
     19    21     2012.0251     2     2010.1203     2013.5990   111862    0.17%
*    20    14      integral     0     2011.9461     2013.5990   112301    0.08%
     20    14     2011.9461     0     2011.9461     2013.5990   112301    0.08%
Elapsed time = 1931.34 sec. (1357126.14 ticks, tree = 9.80 MB, solutions = 3)
*    21    13      integral     0     2012.0126     2013.5990   112688    0.08%
     21    13     2012.0126     0     2012.0126     2013.5990   112688    0.08%
     23    13     2013.4903    10     2012.0126     2013.5989   113708    0.08%
     24    14     2013.4331    10     2012.0126     2013.5989   114059    0.08%
     25    15     2013.4041    11     2012.0126     2013.5989   114554    0.08%
     26    16     2013.4028     8     2012.0126     2013.5989   114823    0.08%
     28    16        cutoff           2012.0126     2013.5989   118464    0.08%
     29    17     2013.3096     8     2012.0126     2013.5989   124926    0.08%
     30    16        cutoff           2012.0126     2013.5989   130982    0.08%
     31    17     2013.1299    18     2012.0126     2013.5989   163415    0.08%
     32    16        cutoff           2012.0126     2013.5989   196847    0.08%
Elapsed time = 2297.09 sec. (1593925.12 ticks, tree = 10.16 MB, solutions = 4)
     34    18     2012.7094    11     2012.0126     2013.5989   200328    0.08%
     35    17        cutoff           2012.0126     2013.5989   214690    0.08%
     36    18     2012.6098    26     2012.0126     2013.5989   215858    0.08%
     37    19     2012.1684     6     2012.0126     2013.5989   217215    0.08%
     38    20     2012.0340     6     2012.0126     2013.5989   217926    0.08%
     39    19        cutoff           2012.0126     2013.5989   218261    0.08%
     40    18        cutoff           2012.0126     2013.5989   218392    0.08%
     41    17        cutoff           2012.0126     2013.5989   218507    0.08%
     42    18     2013.5758    33     2012.0126     2013.5757   218982    0.08%
     43    19     2013.5228    32     2012.0126     2013.5757   219728    0.08%
Elapsed time = 2531.78 sec. (1718768.30 ticks, tree = 10.69 MB, solutions = 4)
     44    20     2013.3745    29     2012.0126     2013.5757   221317    0.08%
     45    21     2013.3096    25     2012.0126     2013.5757   222083    0.08%
     46    22     2013.2075    12     2012.0126     2013.5757   222852    0.08%
     47    23     2013.1079    28     2012.0126     2013.5757   224512    0.08%
     48    24     2013.0547    19     2012.0126     2013.5757   225015    0.08%
     49    25     2012.7766    32     2012.0126     2013.5757   229297    0.08%
     50    26     2012.7623    23     2012.0126     2013.5757   229484    0.08%
     51    27     2012.5791    33     2012.0126     2013.5757   230997    0.08%
     52    28     2012.5047    36     2012.0126     2013.5757   232164    0.08%
     53    29     2012.3958    36     2012.0126     2013.5757   232886    0.08%
Elapsed time = 2917.67 sec. (1938272.60 ticks, tree = 12.49 MB, solutions = 4)
     54    30     2012.2329    35     2012.0126     2013.5757   234300    0.08%
     55    31     2012.1043    34     2012.0126     2013.5757   236367    0.08%
     56    30        cutoff           2012.0126     2013.5757   237409    0.08%
     57    29        cutoff           2012.0126     2013.5757   237572    0.08%
     58    30     2013.4432    29     2012.0126     2013.5226   239115    0.08%
     59    31     2013.4085    21     2012.0126     2013.5226   239830    0.08%
*    60+   16                         2013.0356     2013.5226             0.02%
     60    18     2013.3683    33     2013.0356     2013.5226   240129    0.02%
     61    19     2013.2507    21     2013.0356     2013.5226   240896    0.02%
     62    20     2013.1982    18     2013.0356     2013.5226   241435    0.02%
     63    19        cutoff           2013.0356     2013.5226   242055    0.02%
Elapsed time = 3167.41 sec. (2079545.07 ticks, tree = 3.24 MB, solutions = 5)
     64    18        cutoff           2013.0356     2013.5226   242310    0.02%
     65    19     2013.4425    10     2013.0356     2013.4432   242826    0.02%
     66    20     2013.4030    12     2013.0356     2013.4432   243550    0.02%
     67    21     2013.3171    13     2013.0356     2013.4432   244276    0.02%
     68    22     2013.1922    11     2013.0356     2013.4432   246339    0.02%
     69    23     2013.1212    13     2013.0356     2013.4432   247205    0.02%
     70    22        cutoff           2013.0356     2013.4432   247541    0.02%
     72    22     2013.3454    14     2013.0356     2013.4424   248938    0.02%
     73    23     2013.3140    10     2013.0356     2013.4424   249060    0.02%
     74    24     2013.3085    10     2013.0356     2013.4424   249170    0.02%
Elapsed time = 3311.64 sec. (2150885.39 ticks, tree = 3.77 MB, solutions = 5)
     75    23        cutoff           2013.0356     2013.4424   249476    0.02%
     76    24     2013.2912    10     2013.0356     2013.4424   250135    0.02%
     77    23        cutoff           2013.0356     2013.4424   250404    0.02%
     78    24     2013.2396    10     2013.0356     2013.4424   252565    0.02%
     79    23        cutoff           2013.0356     2013.4424   252786    0.02%
     80    24     2013.2381    11     2013.0356     2013.4424   252855    0.02%
     81    23        cutoff           2013.0356     2013.4424   252978    0.02%
     82    22        cutoff           2013.0356     2013.4424   257389    0.02%
     83    23     2013.1595    10     2013.0356     2013.4424   257548    0.02%
     84    22        cutoff           2013.0356     2013.4424   259645    0.02%
Elapsed time = 3528.02 sec. (2284253.40 ticks, tree = 3.77 MB, solutions = 5)
     86    20        cutoff           2013.0356     2013.4326   261217    0.02%
     87    19        cutoff           2013.0356     2013.4085   262766    0.02%
     88    20     2013.0629    13     2013.0356     2013.4040   263728    0.02%
     90    18        cutoff           2013.0356     2013.4040   263885    0.02%
     91    17        cutoff           2013.0356     2013.4039   267758    0.02%
     92    18     2013.3814     9     2013.0356     2013.4029   268242    0.02%
     93    17        cutoff           2013.0356     2013.4029   268736    0.02%
     94    16        cutoff           2013.0356     2013.4029   270685    0.02%
     95    15        cutoff           2013.0356     2013.3742   271501    0.02%
     96    14        cutoff           2013.0356     2013.3678   272155    0.02%
Elapsed time = 3727.51 sec. (2415163.68 ticks, tree = 2.34 MB, solutions = 5)
     97    15     2013.2466    10     2013.0356     2013.3454   273346    0.02%
     98    16     2013.2159    11     2013.0356     2013.3454   274063    0.02%
     99    17     2013.2052    13     2013.0356     2013.3454   274379    0.02%
    100    18     2013.1708    10     2013.0356     2013.3454   274687    0.02%
    101    19     2013.1418    10     2013.0356     2013.3454   274891    0.02%
    103    21     2013.1215    10     2013.0356     2013.3454   275106    0.02%
    104    22     2013.0768    10     2013.0356     2013.3454   275971    0.02%
    105    21        cutoff           2013.0356     2013.3454   276431    0.02%
*   107    12      integral     0     2013.1834     2013.3454   282819    0.01%
    107    12     2013.1834     0     2013.1834     2013.3345   282819    0.01%
    108    13     2013.2409    14     2013.1834     2013.3144   283154    0.01%
Elapsed time = 3969.54 sec. (2548785.53 ticks, tree = 1.98 MB, solutions = 6)
    109    14     2013.1847    16     2013.1834     2013.3144   284231    0.01%
    110    13        cutoff           2013.1834     2013.3144   284825    0.01%
    114     9        cutoff           2013.1834     2013.2504   285244    0.00%
    115     8        cutoff           2013.1834     2013.2491   286106    0.00%
    118     5        cutoff           2013.1834     2013.2073   286605    0.00%
    120     3        cutoff           2013.1834     2013.1922   287245    0.00%

User cuts applied:  11

Root node processing (before b&c):
  Real time             =  487.89 sec. (434179.98 ticks)
Sequential b&c:
  Real time             = 3551.87 sec. (2160023.51 ticks)
                          ------------
Total (root+branch&cut) = 4039.76 sec. (2594203.49 ticks)
@Parameters: 
is_S_cut                                true
is_add_all_yinF                         true
is_start_value                          true
is_usercut                              true
is_visualization                        false
uc_only_rootnode                        false

data                                    Qi
fn                                      data/Qi/instance_500_1000.csv
mode                                    ZLP
solver                                  cplex

p                                       10
r                                       2

EPS                                     1.0e-06
EPS_vio                                 1.0e-04
beta                                    0.10
gap                                     0.00
nodelimit                               Inf
timelimit                               7200.00


@PrintInfos
ItCnt: 287530
Current gap: 0.00 %
Termination Status: OPTIMAL
Primal Status: FEASIBLE_POINT
Solve Time: 4039.76 sec
Objective Value: 2013.183384
Number of Nodes:    124

CutInfo: [phase] num / time (sec) 
ZLP             [phase1]     0 / 0.00 [rLC]     3 / 10.85 [rUC]     2 / 5.80 [sLC]     1 / 12.51 [sUC]     9 / 372.05 
OldSubmodular   [phase1]     0 / 0.00 [rLC]     0 / 0.00 [rUC]     0 / 0.00 [sLC]     0 / 0.00 [sUC]     0 / 0.00 
NewSubmodular   [phase1]     0 / 0.00 [rLC]     0 / 0.00 [rUC]     0 / 0.00 [sLC]     0 / 0.00 [sUC]     0 / 0.00 
PMP             [phase1]     0 / 0.00 [rLC]     4 / 7.96 [rUC]     2 / 4.40 [sLC]     6 / 10.82 [sUC]   157 / 303.82 
Separation Round: [phase1] 0  [rLC] 4  [rUC] 2  [sLC] 6  [sUC] 157
Root Best Bound 2013.612571
Root Best Integer: 1999.175788
Best Bound: 2013.183384
Best Integer: 2013.183384

